(set-logic QF_LIA)
(declare-fun x0 () Int)
(declare-fun x1 () Int)
(declare-fun x2 () Int)
(declare-fun x3 () Int)
(declare-fun x4 () Int)
(declare-fun x5 () Int)
(declare-fun x6 () Int)
(declare-fun x7 () Int)
(declare-fun x8 () Int)
(declare-fun x9 () Int)
(declare-fun A0 () Bool)
(declare-fun A1 () Bool)
(declare-fun A2 () Bool)
(declare-fun A3 () Bool)
(declare-fun A4 () Bool)
(declare-fun A5 () Bool)
(declare-fun A6 () Bool)
(declare-fun A7 () Bool)
(declare-fun A8 () Bool)
(declare-fun A9 () Bool)
(assert (let ((.def_0 (* (- 1) x6))) (let ((.def_1 (* (- 1) x4))) (let ((.def_2 (+ .def_1 .def_0))) (let ((.def_3 (< .def_2 (- 1)))) (let ((.def_4 (or .def_3 A0))) (let ((.def_5 (not A5))) (let ((.def_6 (* 1 x7))) (let ((.def_7 (+ .def_6 .def_1))) (let ((.def_8 (< .def_7 (- 1)))) (let ((.def_9 (or .def_8 .def_5))) (let ((.def_10 (and .def_9 .def_4))) (let ((.def_11 (not .def_10))) (let ((.def_12 (* 1 x9))) (let ((.def_13 (< .def_12 (- 1)))) (let ((.def_14 (not .def_13))) (let ((.def_15 (not A7))) (let ((.def_16 (and .def_15 .def_14))) (let ((.def_17 (< .def_6 1))) (let ((.def_18 (not .def_17))) (let ((.def_19 (or .def_18 A7))) (let ((.def_20 (not .def_19))) (let ((.def_21 (and .def_20 .def_16))) (let ((.def_22 (not .def_21))) (let ((.def_23 (and .def_22 .def_11))) (let ((.def_24 (not .def_23))) (let ((.def_25 (* 1 x5))) (let ((.def_26 (* 1 x4))) (let ((.def_27 (+ .def_26 .def_25))) (let ((.def_28 (< .def_27 (- 1)))) (let ((.def_29 (= A8 .def_28))) (let ((.def_30 (not .def_29))) (let ((.def_31 (* 1 x2))) (let ((.def_32 (< .def_31 1))) (let ((.def_33 (not .def_32))) (let ((.def_34 (not A3))) (let ((.def_35 (or .def_34 .def_33))) (let ((.def_36 (or .def_35 .def_30))) (let ((.def_37 (not A8))) (let ((.def_38 (not A0))) (let ((.def_39 (or .def_38 .def_37))) (let ((.def_40 (not .def_39))) (let ((.def_41 (* 1 x0))) (let ((.def_42 (* (- 1) x3))) (let ((.def_43 (+ .def_42 .def_41))) (let ((.def_44 (< .def_43 1))) (let ((.def_45 (or .def_44 .def_15))) (let ((.def_46 (or .def_45 .def_40))) (let ((.def_47 (not .def_46))) (let ((.def_48 (and .def_47 .def_36))) (let ((.def_49 (not .def_48))) (let ((.def_50 (or .def_49 .def_24))) (let ((.def_51 (not .def_50))) (let ((.def_52 (* (- 1) x7))) (let ((.def_53 (+ .def_1 .def_52))) (let ((.def_54 (< .def_53 (- 1)))) (let ((.def_55 (= .def_54 .def_5))) (let ((.def_56 (not .def_55))) (let ((.def_57 (not A2))) (let ((.def_58 (or .def_57 A2))) (let ((.def_59 (and .def_58 .def_56))) (let ((.def_60 (not .def_59))) (let ((.def_61 (* (- 1) x2))) (let ((.def_62 (+ .def_0 .def_61))) (let ((.def_63 (< .def_62 (- 1)))) (let ((.def_64 (or .def_63 .def_57))) (let ((.def_65 (* 1 x1))) (let ((.def_66 (* 1 x8))) (let ((.def_67 (+ .def_66 .def_65))) (let ((.def_68 (< .def_67 1))) (let ((.def_69 (not .def_68))) (let ((.def_70 (not A9))) (let ((.def_71 (and .def_70 .def_69))) (let ((.def_72 (or .def_71 .def_64))) (let ((.def_73 (and .def_72 .def_60))) (let ((.def_74 (and A6 A8))) (let ((.def_75 (* (- 1) x0))) (let ((.def_76 (+ .def_65 .def_75))) (let ((.def_77 (< .def_76 1))) (let ((.def_78 (= .def_77 A7))) (let ((.def_79 (not .def_78))) (let ((.def_80 (or .def_79 .def_74))) (let ((.def_81 (not .def_80))) (let ((.def_82 (< .def_75 (- 1)))) (let ((.def_83 (or A5 .def_82))) (let ((.def_84 (not .def_83))) (let ((.def_85 (+ .def_1 .def_41))) (let ((.def_86 (< .def_85 (- 1)))) (let ((.def_87 (not .def_86))) (let ((.def_88 (or .def_87 A2))) (let ((.def_89 (and .def_88 .def_84))) (let ((.def_90 (not .def_89))) (let ((.def_91 (and .def_90 .def_81))) (let ((.def_92 (not .def_91))) (let ((.def_93 (= .def_92 .def_73))) (let ((.def_94 (not .def_93))) (let ((.def_95 (or .def_94 .def_51))) (let ((.def_96 (not .def_95))) (let ((.def_97 (< .def_66 (- 1)))) (let ((.def_98 (and A0 .def_97))) (let ((.def_99 (+ .def_42 .def_61))) (let ((.def_100 (< .def_99 (- 1)))) (let ((.def_101 (or .def_97 .def_100))) (let ((.def_102 (not .def_101))) (let ((.def_103 (or .def_102 .def_98))) (let ((.def_104 (not .def_103))) (let ((.def_105 (+ .def_41 .def_12))) (let ((.def_106 (< .def_105 1))) (let ((.def_107 (not .def_106))) (let ((.def_108 (or A7 .def_107))) (let ((.def_109 (not .def_108))) (let ((.def_110 (not A1))) (let ((.def_111 (not .def_97))) (let ((.def_112 (or .def_111 .def_110))) (let ((.def_113 (and .def_112 .def_109))) (let ((.def_114 (not .def_113))) (let ((.def_115 (or .def_114 .def_104))) (let ((.def_116 (not .def_115))) (let ((.def_117 (* (- 1) x1))) (let ((.def_118 (+ .def_75 .def_117))) (let ((.def_119 (< .def_118 1))) (let ((.def_120 (not .def_119))) (let ((.def_121 (= .def_120 A2))) (let ((.def_122 (not .def_121))) (let ((.def_123 (< .def_25 1))) (let ((.def_124 (not .def_123))) (let ((.def_125 (+ .def_61 .def_65))) (let ((.def_126 (< .def_125 1))) (let ((.def_127 (or .def_126 .def_124))) (let ((.def_128 (not .def_127))) (let ((.def_129 (and .def_128 .def_122))) (let ((.def_130 (* 1 x3))) (let ((.def_131 (+ .def_130 .def_65))) (let ((.def_132 (< .def_131 1))) (let ((.def_133 (not .def_132))) (let ((.def_134 (or .def_133 A6))) (let ((.def_135 (not .def_134))) (let ((.def_136 (* (- 1) x8))) (let ((.def_137 (< .def_136 1))) (let ((.def_138 (not .def_137))) (let ((.def_139 (not A4))) (let ((.def_140 (and .def_139 .def_138))) (let ((.def_141 (not .def_140))) (let ((.def_142 (and .def_141 .def_135))) (let ((.def_143 (not .def_142))) (let ((.def_144 (and .def_143 .def_129))) (let ((.def_145 (not .def_144))) (let ((.def_146 (or .def_145 .def_116))) (let ((.def_147 (* (- 1) x5))) (let ((.def_148 (< .def_147 (- 1)))) (let ((.def_149 (not .def_148))) (let ((.def_150 (and .def_149 A6))) (let ((.def_151 (and A6 A0))) (let ((.def_152 (or .def_151 .def_150))) (let ((.def_153 (not .def_152))) (let ((.def_154 (< .def_52 (- 1)))) (let ((.def_155 (not .def_154))) (let ((.def_156 (< .def_1 (- 1)))) (let ((.def_157 (not .def_156))) (let ((.def_158 (or .def_157 .def_155))) (let ((.def_159 (not .def_158))) (let ((.def_160 (< .def_66 1))) (let ((.def_161 (not .def_160))) (let ((.def_162 (< .def_130 1))) (let ((.def_163 (or .def_162 .def_161))) (let ((.def_164 (not .def_163))) (let ((.def_165 (or .def_164 .def_159))) (let ((.def_166 (not .def_165))) (let ((.def_167 (= .def_166 .def_153))) (let ((.def_168 (not .def_167))) (let ((.def_169 (* (- 1) x9))) (let ((.def_170 (< .def_169 (- 1)))) (let ((.def_171 (not .def_170))) (let ((.def_172 (< .def_52 1))) (let ((.def_173 (and .def_172 .def_171))) (let ((.def_174 (+ .def_41 .def_52))) (let ((.def_175 (< .def_174 1))) (let ((.def_176 (or .def_175 .def_37))) (let ((.def_177 (and .def_176 .def_173))) (let ((.def_178 (+ .def_52 .def_130))) (let ((.def_179 (< .def_178 1))) (let ((.def_180 (not .def_179))) (let ((.def_181 (+ .def_6 .def_65))) (let ((.def_182 (< .def_181 (- 1)))) (let ((.def_183 (or .def_182 .def_180))) (let ((.def_184 (not .def_183))) (let ((.def_185 (< .def_42 1))) (let ((.def_186 (not .def_185))) (let ((.def_187 (or .def_186 .def_70))) (let ((.def_188 (not .def_187))) (let ((.def_189 (or .def_188 .def_184))) (let ((.def_190 (not .def_189))) (let ((.def_191 (or .def_190 .def_177))) (let ((.def_192 (not .def_191))) (let ((.def_193 (or .def_192 .def_168))) (let ((.def_194 (not .def_193))) (let ((.def_195 (= .def_194 .def_146))) (let ((.def_196 (not .def_195))) (let ((.def_197 (or .def_196 .def_96))) (let ((.def_198 (+ .def_130 .def_31))) (let ((.def_199 (< .def_198 1))) (let ((.def_200 (not .def_199))) (let ((.def_201 (or .def_57 .def_200))) (let ((.def_202 (or A0 A9))) (let ((.def_203 (not .def_202))) (let ((.def_204 (or .def_203 .def_201))) (let ((.def_205 (< .def_26 (- 1)))) (let ((.def_206 (not .def_205))) (let ((.def_207 (+ .def_41 .def_0))) (let ((.def_208 (< .def_207 1))) (let ((.def_209 (not .def_208))) (let ((.def_210 (= .def_209 .def_206))) (let ((.def_211 (not .def_210))) (let ((.def_212 (* 1 x6))) (let ((.def_213 (+ .def_136 .def_212))) (let ((.def_214 (< .def_213 (- 1)))) (let ((.def_215 (not .def_214))) (let ((.def_216 (and .def_18 .def_215))) (let ((.def_217 (or .def_216 .def_211))) (let ((.def_218 (or .def_217 .def_204))) (let ((.def_219 (not .def_218))) (let ((.def_220 (+ .def_52 .def_136))) (let ((.def_221 (< .def_220 (- 1)))) (let ((.def_222 (not .def_221))) (let ((.def_223 (not A6))) (let ((.def_224 (and .def_223 .def_222))) (let ((.def_225 (or .def_124 A7))) (let ((.def_226 (not .def_225))) (let ((.def_227 (and .def_226 .def_224))) (let ((.def_228 (< .def_1 1))) (let ((.def_229 (not .def_228))) (let ((.def_230 (and .def_111 .def_229))) (let ((.def_231 (+ .def_136 .def_12))) (let ((.def_232 (< .def_231 (- 1)))) (let ((.def_233 (or .def_33 .def_232))) (let ((.def_234 (or .def_233 .def_230))) (let ((.def_235 (and .def_234 .def_227))) (let ((.def_236 (not .def_235))) (let ((.def_237 (= .def_236 .def_219))) (let ((.def_238 (not .def_237))) (let ((.def_239 (< .def_12 1))) (let ((.def_240 (not .def_239))) (let ((.def_241 (= .def_156 .def_240))) (let ((.def_242 (not .def_241))) (let ((.def_243 (or .def_139 .def_70))) (let ((.def_244 (or .def_243 .def_242))) (let ((.def_245 (not .def_244))) (let ((.def_246 (+ .def_169 .def_66))) (let ((.def_247 (< .def_246 (- 1)))) (let ((.def_248 (not .def_247))) (let ((.def_249 (+ .def_75 .def_1))) (let ((.def_250 (< .def_249 (- 1)))) (let ((.def_251 (not .def_250))) (let ((.def_252 (or .def_251 .def_248))) (let ((.def_253 (and .def_5 A1))) (let ((.def_254 (= .def_253 .def_252))) (let ((.def_255 (or .def_254 .def_245))) (let ((.def_256 (and A3 .def_18))) (let ((.def_257 (not .def_256))) (let ((.def_258 (< .def_0 (- 1)))) (let ((.def_259 (not .def_258))) (let ((.def_260 (and .def_259 .def_119))) (let ((.def_261 (not .def_260))) (let ((.def_262 (and .def_261 .def_257))) (let ((.def_263 (+ .def_117 .def_25))) (let ((.def_264 (< .def_263 1))) (let ((.def_265 (not .def_264))) (let ((.def_266 (or .def_265 A0))) (let ((.def_267 (not .def_266))) (let ((.def_268 (and .def_110 A7))) (let ((.def_269 (or .def_268 .def_267))) (let ((.def_270 (not .def_269))) (let ((.def_271 (and .def_270 .def_262))) (let ((.def_272 (not .def_271))) (let ((.def_273 (or .def_272 .def_255))) (let ((.def_274 (not .def_273))) (let ((.def_275 (and .def_274 .def_238))) (let ((.def_276 (not .def_275))) (let ((.def_277 (or .def_37 A0))) (let ((.def_278 (not .def_277))) (let ((.def_279 (+ .def_6 .def_42))) (let ((.def_280 (< .def_279 1))) (let ((.def_281 (not .def_280))) (let ((.def_282 (+ .def_61 .def_26))) (let ((.def_283 (< .def_282 (- 1)))) (let ((.def_284 (not .def_283))) (let ((.def_285 (and .def_284 .def_281))) (let ((.def_286 (and .def_285 .def_278))) (let ((.def_287 (not .def_286))) (let ((.def_288 (+ .def_1 .def_61))) (let ((.def_289 (< .def_288 (- 1)))) (let ((.def_290 (not .def_289))) (let ((.def_291 (and .def_290 A9))) (let ((.def_292 (not .def_291))) (let ((.def_293 (+ .def_0 .def_31))) (let ((.def_294 (< .def_293 1))) (let ((.def_295 (< .def_7 1))) (let ((.def_296 (not .def_295))) (let ((.def_297 (or .def_296 .def_294))) (let ((.def_298 (and .def_297 .def_292))) (let ((.def_299 (not .def_298))) (let ((.def_300 (or .def_299 .def_287))) (let ((.def_301 (not .def_300))) (let ((.def_302 (< .def_42 (- 1)))) (let ((.def_303 (not .def_302))) (let ((.def_304 (< .def_169 1))) (let ((.def_305 (not .def_304))) (let ((.def_306 (or .def_305 .def_303))) (let ((.def_307 (not .def_306))) (let ((.def_308 (and .def_13 .def_97))) (let ((.def_309 (not .def_308))) (let ((.def_310 (and .def_309 .def_307))) (let ((.def_311 (not .def_310))) (let ((.def_312 (< .def_117 (- 1)))) (let ((.def_313 (not .def_312))) (let ((.def_314 (and .def_313 A7))) (let ((.def_315 (not .def_314))) (let ((.def_316 (or .def_37 .def_34))) (let ((.def_317 (not .def_316))) (let ((.def_318 (and .def_317 .def_315))) (let ((.def_319 (not .def_318))) (let ((.def_320 (or .def_319 .def_311))) (let ((.def_321 (not .def_320))) (let ((.def_322 (and .def_321 .def_301))) (let ((.def_323 (not .def_322))) (let ((.def_324 (+ .def_0 .def_130))) (let ((.def_325 (< .def_324 1))) (let ((.def_326 (or .def_13 .def_325))) (let ((.def_327 (+ .def_25 .def_75))) (let ((.def_328 (< .def_327 (- 1)))) (let ((.def_329 (or A9 .def_328))) (let ((.def_330 (or .def_329 .def_326))) (let ((.def_331 (< .def_0 1))) (let ((.def_332 (and A4 .def_331))) (let ((.def_333 (not .def_332))) (let ((.def_334 (+ .def_169 .def_52))) (let ((.def_335 (< .def_334 (- 1)))) (let ((.def_336 (not .def_335))) (let ((.def_337 (and .def_15 .def_336))) (let ((.def_338 (and .def_337 .def_333))) (let ((.def_339 (not .def_338))) (let ((.def_340 (or .def_339 .def_330))) (let ((.def_341 (or .def_110 A0))) (let ((.def_342 (not .def_341))) (let ((.def_343 (+ .def_52 .def_12))) (let ((.def_344 (< .def_343 1))) (let ((.def_345 (and .def_344 A3))) (let ((.def_346 (and .def_345 .def_342))) (let ((.def_347 (and A9 A0))) (let ((.def_348 (and .def_313 .def_38))) (let ((.def_349 (not .def_348))) (let ((.def_350 (or .def_349 .def_347))) (let ((.def_351 (not .def_350))) (let ((.def_352 (and .def_351 .def_346))) (let ((.def_353 (not .def_352))) (let ((.def_354 (and .def_353 .def_340))) (let ((.def_355 (not .def_354))) (let ((.def_356 (and .def_355 .def_323))) (let ((.def_357 (not .def_356))) (let ((.def_358 (or .def_357 .def_276))) (let ((.def_359 (not .def_358))) (let ((.def_360 (and .def_359 .def_197))) (let ((.def_361 (not .def_360))) (let ((.def_362 (<= x9 1))) (let ((.def_363 (<= 0 x9))) (let ((.def_364 (<= x8 1))) (let ((.def_365 (<= 0 x8))) (let ((.def_366 (<= x7 1))) (let ((.def_367 (<= 0 x7))) (let ((.def_368 (<= x6 1))) (let ((.def_369 (<= 0 x6))) (let ((.def_370 (<= x5 1))) (let ((.def_371 (<= 0 x5))) (let ((.def_372 (<= x4 1))) (let ((.def_373 (<= 0 x4))) (let ((.def_374 (<= x3 1))) (let ((.def_375 (<= 0 x3))) (let ((.def_376 (<= x2 1))) (let ((.def_377 (<= 0 x2))) (let ((.def_378 (<= x1 1))) (let ((.def_379 (<= 0 x1))) (let ((.def_380 (<= x0 1))) (let ((.def_381 (<= 0 x0))) (let ((.def_382 (and .def_381 .def_380 .def_379 .def_378 .def_377 .def_376 .def_375 .def_374 .def_373 .def_372 .def_371 .def_370 .def_369 .def_368 .def_367 .def_366 .def_365 .def_364 .def_363 .def_362 .def_361))) .def_382))))))))))))))))))))))))))))))))))))))))))))))))))))))))))))))))))))))))))))))))))))))))))))))))))))))))))))))))))))))))))))))))))))))))))))))))))))))))))))))))))))))))))))))))))))))))))))))))))))))))))))))))))))))))))))))))))))))))))))))))))))))))))))))))))))))))))))))))))))))))))))))))))))))))))))))))))))))))))))))))))))))))))))))))))))))))))))))))))))))))))))))))))))))))))))))))
(check-sat)
